0	54	69	112	132	90	101	197	86	75	199	
188	0	138	102	75	26	78	122	27	198	39	
32	164	0	155	35	176	108	112	132	148	197	
128	192	179	0	33	58	28	60	162	56	157	
184	181	179	73	0	197	31	55	192	186	127	
99	155	68	143	46	0	199	132	71	141	198	
32	56	101	59	146	161	0	186	21	84	128	
136	68	131	182	43	68	114	0	44	131	127	
116	176	192	41	125	94	128	167	0	84	47	
171	107	68	33	186	160	182	56	82	0	194	
48	165	190	145	137	185	29	120	102	113	0	
